NAME : obs.obs
TIME : 2020-10-24 19:15:36
COMMENT : hello world
DIMENSION : 13
OBSTACLE_SECTION
0 97 34
1 150 29
2 173 33
3 158 96
4 88 47
5 90 123
6 163 141
7 151 177
8 52 160
9 15 128
10 91 53
11 40 20
12 21 20
EOF
